\* berth *\
Minimize
OBJ: 559 mid_for_y_0 + 585 mid_for_y_1 + 579 mid_for_y_10 + 552 mid_for_y_11
 + 591 mid_for_y_12 + 404 mid_for_y_13 + 415 mid_for_y_14 + 600 mid_for_y_15
 + 443 mid_for_y_16 + 571 mid_for_y_17 + 444 mid_for_y_18 + 419 mid_for_y_19
 + 598 mid_for_y_2 + 544 mid_for_y_20 + 480 mid_for_y_21 + 529 mid_for_y_22
 + 437 mid_for_y_23 + 591 mid_for_y_24 + 583 mid_for_y_25 + 447 mid_for_y_26
 + 486 mid_for_y_27 + 452 mid_for_y_28 + 462 mid_for_y_29 + 432 mid_for_y_3
 + 426 mid_for_y_30 + 524 mid_for_y_31 + 428 mid_for_y_32 + 407 mid_for_y_33
 + 594 mid_for_y_34 + 491 mid_for_y_4 + 434 mid_for_y_5 + 543 mid_for_y_6
 + 537 mid_for_y_7 + 482 mid_for_y_8 + 594 mid_for_y_9 + 500 mid_x_0
 + 515 mid_x_1 + 431 mid_x_10 + 592 mid_x_11 + 423 mid_x_12 + 569 mid_x_13
 + 567 mid_x_14 + 558 mid_x_15 + 467 mid_x_16 + 510 mid_x_17 + 457 mid_x_18
 + 525 mid_x_19 + 495 mid_x_2 + 538 mid_x_20 + 575 mid_x_21 + 442 mid_x_22
 + 523 mid_x_23 + 495 mid_x_24 + 484 mid_x_25 + 478 mid_x_26 + 591 mid_x_27
 + 432 mid_x_28 + 415 mid_x_29 + 593 mid_x_3 + 587 mid_x_30 + 521 mid_x_31
 + 469 mid_x_32 + 448 mid_x_33 + 546 mid_x_34 + 434 mid_x_4 + 508 mid_x_5
 + 563 mid_x_6 + 536 mid_x_7 + 516 mid_x_8 + 437 mid_x_9
Subject To
_C1: mid_x_0 >= 0
_C10: - mid_x_1 - x_1 <= -590
_C100: mid_for_y_12 >= 0
_C101: mid_for_y_12 - y_12 >= -58
_C102: x_12 <= 1430
_C103: y_12 >= 58
_C104: x_12 >= 0
_C105: mid_x_13 >= 0
_C106: - mid_x_13 - x_13 <= -1367
_C107: mid_x_13 - x_13 >= -1367
_C108: mid_for_y_13 >= 0
_C109: mid_for_y_13 - y_13 >= -81
_C11: mid_x_1 - x_1 >= -590
_C110: x_13 <= 1410
_C111: y_13 >= 81
_C112: x_13 >= 0
_C113: mid_x_14 >= 0
_C114: - mid_x_14 - x_14 <= -1255
_C115: mid_x_14 - x_14 >= -1255
_C116: mid_for_y_14 >= 0
_C117: mid_for_y_14 - y_14 >= -241
_C118: x_14 <= 1411
_C119: y_14 >= 241
_C12: mid_for_y_1 >= 0
_C120: x_14 >= 0
_C121: mid_x_15 >= 0
_C122: - mid_x_15 - x_15 <= -1154
_C123: mid_x_15 - x_15 >= -1154
_C124: mid_for_y_15 >= 0
_C125: mid_for_y_15 - y_15 >= -32
_C126: x_15 <= 1418
_C127: y_15 >= 32
_C128: x_15 >= 0
_C129: mid_x_16 >= 0
_C13: mid_for_y_1 - y_1 >= -396
_C130: - mid_x_16 - x_16 <= -451
_C131: mid_x_16 - x_16 >= -451
_C132: mid_for_y_16 >= 0
_C133: mid_for_y_16 - y_16 >= -228
_C134: x_16 <= 1418
_C135: y_16 >= 228
_C136: x_16 >= 0
_C137: mid_x_17 >= 0
_C138: - mid_x_17 - x_17 <= -982
_C139: mid_x_17 - x_17 >= -982
_C14: x_1 <= 1413
_C140: mid_for_y_17 >= 0
_C141: mid_for_y_17 - y_17 >= -155
_C142: x_17 <= 1427
_C143: y_17 >= 155
_C144: x_17 >= 0
_C145: mid_x_18 >= 0
_C146: - mid_x_18 - x_18 <= -608
_C147: mid_x_18 - x_18 >= -608
_C148: mid_for_y_18 >= 0
_C149: mid_for_y_18 - y_18 >= -159
_C15: y_1 >= 396
_C150: x_18 <= 1424
_C151: y_18 >= 159
_C152: x_18 >= 0
_C153: mid_x_19 >= 0
_C154: - mid_x_19 - x_19 <= -737
_C155: mid_x_19 - x_19 >= -737
_C156: mid_for_y_19 >= 0
_C157: mid_for_y_19 - y_19 >= -312
_C158: x_19 <= 1430
_C159: y_19 >= 312
_C16: x_1 >= 0
_C160: x_19 >= 0
_C161: mid_x_20 >= 0
_C162: - mid_x_20 - x_20 <= -692
_C163: mid_x_20 - x_20 >= -692
_C164: mid_for_y_20 >= 0
_C165: mid_for_y_20 - y_20 >= -277
_C166: x_20 <= 1413
_C167: y_20 >= 277
_C168: x_20 >= 0
_C169: mid_x_21 >= 0
_C17: mid_x_2 >= 0
_C170: - mid_x_21 - x_21 <= -598
_C171: mid_x_21 - x_21 >= -598
_C172: mid_for_y_21 >= 0
_C173: mid_for_y_21 - y_21 >= -317
_C174: x_21 <= 1415
_C175: y_21 >= 317
_C176: x_21 >= 0
_C177: mid_x_22 >= 0
_C178: - mid_x_22 - x_22 <= -1394
_C179: mid_x_22 - x_22 >= -1394
_C18: - mid_x_2 - x_2 <= -663
_C180: mid_for_y_22 >= 0
_C181: mid_for_y_22 - y_22 >= -277
_C182: x_22 <= 1428
_C183: y_22 >= 277
_C184: x_22 >= 0
_C185: mid_x_23 >= 0
_C186: - mid_x_23 - x_23 <= -1008
_C187: mid_x_23 - x_23 >= -1008
_C188: mid_for_y_23 >= 0
_C189: mid_for_y_23 - y_23 >= -331
_C19: mid_x_2 - x_2 >= -663
_C190: x_23 <= 1422
_C191: y_23 >= 331
_C192: x_23 >= 0
_C193: mid_x_24 >= 0
_C194: - mid_x_24 - x_24 <= -808
_C195: mid_x_24 - x_24 >= -808
_C196: mid_for_y_24 >= 0
_C197: mid_for_y_24 - y_24 >= -2
_C198: x_24 <= 1426
_C199: y_24 >= 2
_C2: - mid_x_0 - x_0 <= -1360
_C20: mid_for_y_2 >= 0
_C200: x_24 >= 0
_C201: mid_x_25 >= 0
_C202: - mid_x_25 - x_25 <= -458
_C203: mid_x_25 - x_25 >= -458
_C204: mid_for_y_25 >= 0
_C205: mid_for_y_25 - y_25 >= -146
_C206: x_25 <= 1423
_C207: y_25 >= 146
_C208: x_25 >= 0
_C209: mid_x_26 >= 0
_C21: mid_for_y_2 - y_2 >= -155
_C210: - mid_x_26 - x_26 <= -669
_C211: mid_x_26 - x_26 >= -669
_C212: mid_for_y_26 >= 0
_C213: mid_for_y_26 - y_26 >= -250
_C214: x_26 <= 1410
_C215: y_26 >= 250
_C216: x_26 >= 0
_C217: mid_x_27 >= 0
_C218: - mid_x_27 - x_27 <= -339
_C219: mid_x_27 - x_27 >= -339
_C22: x_2 <= 1415
_C220: mid_for_y_27 >= 0
_C221: mid_for_y_27 - y_27 >= -37
_C222: x_27 <= 1410
_C223: y_27 >= 37
_C224: x_27 >= 0
_C225: mid_x_28 >= 0
_C226: - mid_x_28 - x_28 <= -191
_C227: mid_x_28 - x_28 >= -191
_C228: mid_for_y_28 >= 0
_C229: mid_for_y_28 - y_28 >= -271
_C23: y_2 >= 155
_C230: x_28 <= 1428
_C231: y_28 >= 271
_C232: x_28 >= 0
_C233: mid_x_29 >= 0
_C234: - mid_x_29 - x_29 <= -31
_C235: mid_x_29 - x_29 >= -31
_C236: mid_for_y_29 >= 0
_C237: mid_for_y_29 - y_29 >= -149
_C238: x_29 <= 1413
_C239: y_29 >= 149
_C24: x_2 >= 0
_C240: x_29 >= 0
_C241: mid_x_30 >= 0
_C242: - mid_x_30 - x_30 <= -195
_C243: mid_x_30 - x_30 >= -195
_C244: mid_for_y_30 >= 0
_C245: mid_for_y_30 - y_30 >= -138
_C246: x_30 <= 1414
_C247: y_30 >= 138
_C248: x_30 >= 0
_C249: mid_x_31 >= 0
_C25: mid_x_3 >= 0
_C250: - mid_x_31 - x_31 <= -434
_C251: mid_x_31 - x_31 >= -434
_C252: mid_for_y_31 >= 0
_C253: mid_for_y_31 - y_31 >= -385
_C254: x_31 <= 1429
_C255: y_31 >= 385
_C256: x_31 >= 0
_C257: mid_x_32 >= 0
_C258: - mid_x_32 - x_32 <= -1158
_C259: mid_x_32 - x_32 >= -1158
_C26: - mid_x_3 - x_3 <= -1119
_C260: mid_for_y_32 >= 0
_C261: mid_for_y_32 - y_32 >= -16
_C262: x_32 <= 1418
_C263: y_32 >= 16
_C264: x_32 >= 0
_C265: mid_x_33 >= 0
_C266: - mid_x_33 - x_33 <= -1052
_C267: mid_x_33 - x_33 >= -1052
_C268: mid_for_y_33 >= 0
_C269: mid_for_y_33 - y_33 >= -159
_C27: mid_x_3 - x_3 >= -1119
_C270: x_33 <= 1425
_C271: y_33 >= 159
_C272: x_33 >= 0
_C273: mid_x_34 >= 0
_C274: - mid_x_34 - x_34 <= -988
_C275: mid_x_34 - x_34 >= -988
_C276: mid_for_y_34 >= 0
_C277: mid_for_y_34 - y_34 >= -219
_C278: x_34 <= 1411
_C279: y_34 >= 219
_C28: mid_for_y_3 >= 0
_C280: x_34 >= 0
_C281: x_15 - x_3 + 100000000 z_x_(15,_3) <= 99999918
_C282: - x_15 + x_3 + 100000000 z_x_(3,_15) <= 99999922
_C283: y_15 - y_3 + 100000000 z_y_(15,_3) <= 99999972
_C284: - y_15 + y_3 + 100000000 z_y_(3,_15) <= 99999971
_C285: z_x_(15,_3) + z_x_(3,_15) + z_y_(15,_3) + z_y_(3,_15) >= 1
_C286: - x_10 + x_16 + 100000000 z_x_(16,_10) <= 99999918
_C287: x_10 - x_16 + 100000000 z_x_(10,_16) <= 99999921
_C288: - y_10 + y_16 + 100000000 z_y_(16,_10) <= 99999974
_C289: y_10 - y_16 + 100000000 z_y_(10,_16) <= 99999978
_C29: mid_for_y_3 - y_3 >= -59
_C290: z_x_(10,_16) + z_x_(16,_10) + z_y_(10,_16) + z_y_(16,_10) >= 1
_C291: x_18 - x_2 + 100000000 z_x_(18,_2) <= 99999924
_C292: - x_18 + x_2 + 100000000 z_x_(2,_18) <= 99999915
_C293: y_18 - y_2 + 100000000 z_y_(18,_2) <= 99999972
_C294: - y_18 + y_2 + 100000000 z_y_(2,_18) <= 99999973
_C295: z_x_(18,_2) + z_x_(2,_18) + z_y_(18,_2) + z_y_(2,_18) >= 1
_C296: x_23 - x_6 + 100000000 z_x_(23,_6) <= 99999922
_C297: - x_23 + x_6 + 100000000 z_x_(6,_23) <= 99999927
_C298: y_23 - y_6 + 100000000 z_y_(23,_6) <= 99999973
_C299: - y_23 + y_6 + 100000000 z_y_(6,_23) <= 99999980
_C3: mid_x_0 - x_0 >= -1360
_C30: x_3 <= 1422
_C300: z_x_(23,_6) + z_x_(6,_23) + z_y_(23,_6) + z_y_(6,_23) >= 1
_C301: x_29 - x_4 + 100000000 z_x_(29,_4) <= 99999913
_C302: - x_29 + x_4 + 100000000 z_x_(4,_29) <= 99999926
_C303: y_29 - y_4 + 100000000 z_y_(29,_4) <= 99999977
_C304: - y_29 + y_4 + 100000000 z_y_(4,_29) <= 99999972
_C305: z_x_(29,_4) + z_x_(4,_29) + z_y_(29,_4) + z_y_(4,_29) >= 1
_C306: - x_15 + x_32 + 100000000 z_x_(32,_15) <= 99999918
_C307: x_15 - x_32 + 100000000 z_x_(15,_32) <= 99999918
_C308: - y_15 + y_32 + 100000000 z_y_(32,_15) <= 99999973
_C309: y_15 - y_32 + 100000000 z_y_(15,_32) <= 99999972
_C31: y_3 >= 59
_C310: z_x_(15,_32) + z_x_(32,_15) + z_y_(15,_32) + z_y_(32,_15) >= 1
_C311: - x_17 + x_33 + 100000000 z_x_(33,_17) <= 99999925
_C312: x_17 - x_33 + 100000000 z_x_(17,_33) <= 99999927
_C313: - y_17 + y_33 + 100000000 z_y_(33,_17) <= 99999981
_C314: y_17 - y_33 + 100000000 z_y_(17,_33) <= 99999975
_C315: z_x_(17,_33) + z_x_(33,_17) + z_y_(17,_33) + z_y_(33,_17) >= 1
_C32: x_3 >= 0
_C33: mid_x_4 >= 0
_C34: - mid_x_4 - x_4 <= -58
_C35: mid_x_4 - x_4 >= -58
_C36: mid_for_y_4 >= 0
_C37: mid_for_y_4 - y_4 >= -139
_C38: x_4 <= 1426
_C39: y_4 >= 139
_C4: mid_for_y_0 >= 0
_C40: x_4 >= 0
_C41: mid_x_5 >= 0
_C42: - mid_x_5 - x_5 <= -190
_C43: mid_x_5 - x_5 >= -190
_C44: mid_for_y_5 >= 0
_C45: mid_for_y_5 - y_5 >= -170
_C46: x_5 <= 1419
_C47: y_5 >= 170
_C48: x_5 >= 0
_C49: mid_x_6 >= 0
_C5: mid_for_y_0 - y_0 >= -32
_C50: - mid_x_6 - x_6 <= -1052
_C51: mid_x_6 - x_6 >= -1052
_C52: mid_for_y_6 >= 0
_C53: mid_for_y_6 - y_6 >= -357
_C54: x_6 <= 1427
_C55: y_6 >= 357
_C56: x_6 >= 0
_C57: mid_x_7 >= 0
_C58: - mid_x_7 - x_7 <= -1081
_C59: mid_x_7 - x_7 >= -1081
_C6: x_0 <= 1427
_C60: mid_for_y_7 >= 0
_C61: mid_for_y_7 - y_7 >= -110
_C62: x_7 <= 1420
_C63: y_7 >= 110
_C64: x_7 >= 0
_C65: mid_x_8 >= 0
_C66: - mid_x_8 - x_8 <= -730
_C67: mid_x_8 - x_8 >= -730
_C68: mid_for_y_8 >= 0
_C69: mid_for_y_8 - y_8 >= -82
_C7: y_0 >= 32
_C70: x_8 <= 1420
_C71: y_8 >= 82
_C72: x_8 >= 0
_C73: mid_x_9 >= 0
_C74: - mid_x_9 - x_9 <= -1456
_C75: mid_x_9 - x_9 >= -1456
_C76: mid_for_y_9 >= 0
_C77: mid_for_y_9 - y_9 >= -350
_C78: x_9 <= 1410
_C79: y_9 >= 350
_C8: x_0 >= 0
_C80: x_9 >= 0
_C81: mid_x_10 >= 0
_C82: - mid_x_10 - x_10 <= -477
_C83: mid_x_10 - x_10 >= -477
_C84: mid_for_y_10 >= 0
_C85: mid_for_y_10 - y_10 >= -237
_C86: x_10 <= 1421
_C87: y_10 >= 237
_C88: x_10 >= 0
_C89: mid_x_11 >= 0
_C9: mid_x_1 >= 0
_C90: - mid_x_11 - x_11 <= -315
_C91: mid_x_11 - x_11 >= -315
_C92: mid_for_y_11 >= 0
_C93: mid_for_y_11 - y_11 >= -166
_C94: x_11 <= 1424
_C95: y_11 >= 166
_C96: x_11 >= 0
_C97: mid_x_12 >= 0
_C98: - mid_x_12 - x_12 <= -710
_C99: mid_x_12 - x_12 >= -710
Binaries
z_x_(10,_16)
z_x_(15,_3)
z_x_(15,_32)
z_x_(16,_10)
z_x_(17,_33)
z_x_(18,_2)
z_x_(2,_18)
z_x_(23,_6)
z_x_(29,_4)
z_x_(3,_15)
z_x_(32,_15)
z_x_(33,_17)
z_x_(4,_29)
z_x_(6,_23)
z_y_(10,_16)
z_y_(15,_3)
z_y_(15,_32)
z_y_(16,_10)
z_y_(17,_33)
z_y_(18,_2)
z_y_(2,_18)
z_y_(23,_6)
z_y_(29,_4)
z_y_(3,_15)
z_y_(32,_15)
z_y_(33,_17)
z_y_(4,_29)
z_y_(6,_23)
End
